(set-info :smt-lib-version 2.6)
(set-logic LRA)
(set-info :source |
   Monniaux, David; Quantifier Elimination by Lazy Model Enumeration, CAV 2010
|)
(set-info :category "random")
; ./Mjollnir_examples/B3/formula_093.m
(set-info :status sat)
(assert
 (forall ((|v11:0| Real) )(forall ((|v10:1| Real) )(forall ((|v9:2| Real) )(forall ((|v8:3| Real) )(exists ((|v7:4| Real) )(exists ((|v6:5| Real) )(exists ((|v5:6| Real) )(exists ((|v4:7| Real) )(forall ((|v3:8| Real) )(forall ((|v2:9| Real) )(forall ((|v1:10| Real) )(forall ((|v0:11| Real) )(let ((?x184 6))
(let ((?x453 (+ (+ (* 4 |v8:3|) (* (- 8) |v3:8|)) (* 16 |v3:8|))))
(let ((?x46 (- 8)))
(let ((?x445 (+ (+ (* (- 18) |v4:7|) (* 3 |v2:9|)) (* 11 |v10:1|))))
(let (($x457 (and (<= (+ ?x445 (* 9 |v5:6|)) ?x46) (<= (+ ?x453 (* 19 |v10:1|)) ?x184))))
(let ((?x52 15))
(let ((?x437 (+ (+ (* (- 3) |v3:8|) (* (- 17) |v1:10|)) (* (- 17) |v10:1|))))
(let ((?x428 (+ (+ (* 19 |v9:2|) (* 5 |v5:6|)) (* 19 |v3:8|))))
(let ((?x233 (- 7)))
(let ((?x82 11))
(let ((?x344 (* ?x82 |v5:6|)))
(let ((?x422 (+ (+ (+ (* (- 6) |v10:1|) (* 10 |v6:5|)) ?x344) (* ?x46 |v8:3|))))
(let ((?x27 19))
(let ((?x412 (+ (+ (* (- 17) |v5:6|) (* ?x233 |v3:8|)) (* (- 19) |v7:4|))))
(let ((?x98 (- 13)))
(let ((?x204 10))
(let ((?x242 (* ?x204 |v10:1|)))
(let ((?x406 (+ (+ (+ (* 14 |v4:7|) (* ?x204 |v2:9|)) ?x242) (* 0 |v5:6|))))
(let (($x433 (or (or (<= ?x406 ?x98) (<= (+ ?x412 (* (- 12) |v1:10|)) ?x27)) (and (<= ?x422 ?x233) (<= (+ ?x428 (* (- 18) |v1:10|)) ?x46)))))
(let ((?x101 (- 16)))
(let ((?x397 (+ (+ (* (- 19) |v1:10|) (* 4 |v10:1|)) (* 12 |v9:2|))))
(let (($x460 (and (<= (+ ?x397 (* (- 11) |v4:7|)) ?x101) (or $x433 (or (<= (+ ?x437 (* 8 |v10:1|)) ?x52) $x457)))))
(let ((?x65 0))
(let ((?x387 (+ (+ (+ (* ?x98 |v7:4|) (* ?x101 |v11:0|)) (* 14 |v1:10|)) (* 3 |v10:1|))))
(let ((?x94 (- 17)))
(let ((?x10 14))
(let ((?x272 (* ?x10 |v0:11|)))
(let ((?x379 (+ (+ (+ (* (- 15) |v6:5|) (* 18 |v1:10|)) ?x272) (* (- 3) |v1:10|))))
(let ((?x135 (- 18)))
(let ((?x370 (+ (+ (* 12 |v1:10|) (* 13 |v3:8|)) (* ?x94 |v2:9|))))
(let ((?x361 (* ?x94 |v1:10|)))
(let ((?x364 (+ (+ (+ (* 12 |v5:6|) (* 16 |v8:3|)) ?x361) (* 8 |v9:2|))))
(let (($x390 (or (or (<= ?x364 ?x65) (<= (+ ?x370 (* (- 1) |v8:3|)) ?x135)) (or (<= ?x379 ?x94) (<= ?x387 ?x65)))))
(let ((?x79 5))
(let ((?x201 13))
(let ((?x244 (* ?x201 |v9:2|)))
(let ((?x355 (+ (+ (* ?x94 |v6:5|) (* (- 2) |v10:1|)) (* (- 15) |v7:4|))))
(let (($x392 (and (<= (+ (+ (+ |v2:9| ?x344) (* ?x135 |v7:4|)) (* ?x82 |v4:7|)) ?x94) (or (<= (+ ?x355 ?x244) ?x79) $x390))))
(let ((?x337 (+ (+ (+ (* ?x201 |v4:7|) (* ?x82 |v1:10|)) (* (- 6) |v5:6|)) (* (- 1) |v11:0|))))
(let ((?x198 (- 19)))
(let ((?x328 (+ (+ (* 20 |v1:10|) (* ?x184 |v8:3|)) (* (- 2) |v7:4|))))
(let ((?x14 20))
(let ((?x109 (- 4)))
(let ((?x270 (* ?x109 |v1:10|)))
(let ((?x116 (- 9)))
(let ((?x267 (* ?x116 |v3:8|)))
(let (($x322 (<= (+ (+ (+ (* (- 14) |v4:7|) (* ?x135 |v9:2|)) ?x267) ?x270) ?x14)))
(let ((?x315 (+ (+ (+ (* 2 |v8:3|) (* ?x116 |v11:0|)) (* ?x101 |v6:5|)) |v2:9|)))
(let (($x340 (or (or (<= ?x315 ?x116) $x322) (or (<= (+ ?x328 (* ?x204 |v9:2|)) ?x198) (<= ?x337 ?x65)))))
(let ((?x304 (+ (+ (* 17 |v10:1|) (* ?x94 |v3:8|)) (* (- 5) |v3:8|))))
(let ((?x294 (+ (+ (* 9 |v7:4|) (* (- 11) |v3:8|)) (* 17 |v5:6|))))
(let (($x308 (and (<= (+ ?x294 (* ?x109 |v2:9|)) ?x82) (<= (+ ?x304 (* (- 11) |v11:0|)) ?x116))))
(let ((?x113 (- 12)))
(let ((?x231 (* ?x113 |v10:1|)))
(let ((?x286 (+ (+ (* 18 |v4:7|) (* 17 |v3:8|)) (* ?x198 |v8:3|))))
(let ((?x75 8))
(let ((?x280 (+ (+ (* ?x233 |v9:2|) (* (- 11) |v7:4|)) (* (- 3) |v0:11|))))
(let (($x341 (and (and (or (<= (+ ?x280 |v10:1|) ?x75) (<= (+ ?x286 ?x231) ?x113)) $x308) $x340)))
(let ((?x261 (+ (+ (* (- 10) |v6:5|) (* 2 |v0:11|)) (* (- 14) |v8:3|))))
(let ((?x122 (- 6)))
(let ((?x254 (+ (+ (* 2 |v1:10|) (* (- 14) |v2:9|)) (* ?x14 |v11:0|))))
(let (($x265 (and (<= (+ ?x254 (* 18 |v6:5|)) ?x122) (<= (+ ?x261 (* ?x201 |v10:1|)) ?x46))))
(let ((?x245 (+ (+ (+ (* 16 |v10:1|) (* (- 10) |v10:1|)) ?x242) ?x244)))
(let (($x240 (<= (+ (+ (+ ?x231 (* ?x233 |v11:0|)) (* ?x122 |v8:3|)) (* ?x233 |v6:5|)) ?x79)))
(let (($x275 (and (and (or $x240 (<= ?x245 ?x113)) $x265) (<= (+ (+ (+ ?x267 (* ?x65 |v6:5|)) ?x270) ?x272) (- 11)))))
(let ((?x166 2))
(let ((?x224 (* ?x201 |v4:7|)))
(let ((?x89 18))
(let ((?x90 (* ?x89 |v4:7|)))
(let (($x226 (<= (+ (+ (+ (* 7 |v1:10|) (* ?x65 |v0:11|)) ?x90) ?x224) ?x166)))
(let ((?x216 (+ (+ (* (- 1) |v2:9|) (* 4 |v1:10|)) (* ?x14 |v7:4|))))
(let ((?x106 (* ?x14 |v5:6|)))
(let (($x211 (<= (+ (+ (+ (* ?x204 |v5:6|) (* ?x166 |v4:7|)) (* ?x135 |v6:5|)) ?x106) ?x184)))
(let ((?x200 (+ (+ (+ (* (- 10) |v6:5|) (* 12 |v8:3|)) |v7:4|) (* ?x198 |v3:8|))))
(let (($x228 (and (and (<= ?x200 ?x201) $x211) (or (<= (+ ?x216 (* ?x184 |v0:11|)) ?x201) $x226))))
(let ((?x188 (+ (+ (+ (* (- 15) |v0:11|) (* ?x82 |v2:9|)) (* ?x184 |v5:6|)) (* ?x98 |v4:7|))))
(let ((?x39 16))
(let ((?x141 (* ?x65 |v4:7|)))
(let ((?x177 (+ (+ (* ?x135 |v0:11|) (* 3 |v11:0|)) (* (- 11) |v5:6|))))
(let ((?x168 (+ (+ (+ (* ?x101 |v5:6|) (* ?x89 |v11:0|)) (* ?x79 |v11:0|)) (* ?x166 |v2:9|))))
(let ((?x60 4))
(let ((?x157 (* (- 10) |v10:1|)))
(let ((?x158 (+ (+ (+ (* (- 20) |v10:1|) (* ?x65 |v7:4|)) (* ?x113 |v5:6|)) ?x157)))
(let (($x191 (or (or (<= ?x158 ?x60) (<= ?x168 ?x10)) (or (<= (+ ?x177 ?x141) ?x39) (<= ?x188 ?x79)))))
(let ((?x144 (+ (+ (+ (* ?x135 |v11:0|) (* (- 1) |v3:8|)) ?x141) (* ?x135 |v8:3|))))
(let ((?x128 (+ (+ (* 7 |v11:0|) (* ?x122 |v3:8|)) (* (- 3) |v6:5|))))
(let ((?x115 (+ (+ (+ (* (- 15) |v2:9|) ?x106) (* ?x109 |v8:3|)) (* ?x113 |v3:8|))))
(let ((?x100 (+ (+ (+ ?x90 (* 7 |v10:1|)) (* ?x94 |v8:3|)) (* ?x98 |v9:2|))))
(let (($x147 (and (or (<= ?x100 ?x101) (<= ?x115 ?x116)) (or (<= (+ ?x128 (* 9 |v4:7|)) ?x39) (<= ?x144 ?x98)))))
(let ((?x81 (+ (+ (+ (* (- 15) |v10:1|) (* ?x52 |v5:6|)) (* ?x75 |v3:8|)) (* ?x79 |v1:10|))))
(let ((?x68 (- 2)))
(let ((?x67 (+ (+ (+ (* ?x52 |v0:11|) (* 12 |v3:8|)) (* ?x60 |v1:10|)) (* ?x65 |v9:2|))))
(let ((?x43 (- 15)))
(let ((?x44 (* ?x43 |v6:5|)))
(let ((?x40 (* ?x39 |v10:1|)))
(let ((?x45 (+ (+ (+ (* 3 |v5:6|) (* 17 |v6:5|)) ?x40) ?x44)))
(let ((?x26 (+ (+ (+ (* ?x10 |v10:1|) (* ?x14 |v3:8|)) (* 7 |v8:3|)) (* (- 20) |v5:6|))))
(let (($x85 (or (or (<= ?x26 ?x27) (<= ?x45 ?x46)) (or (<= ?x67 ?x68) (<= ?x81 ?x82)))))
(or (or (or (and $x85 $x147) (or $x191 $x228)) (and $x275 $x341)) (and $x392 $x460)))))))))))))))))))))))))))))))))))))))))))))))))))))))))))))))))))))))))))))))))))))))))))))))))))))
)
)
)
)
)
)
)
)
)
)
)
)
(check-sat)
(exit)

